(set-info :source |printed by MathSAT|)
(declare-fun b () Bool)
(declare-fun flby () Bool)
(declare-fun c () Bool)
(declare-fun _OK_ () Bool)
(declare-fun flby2 () Bool)
(declare-fun a () Bool)
(declare-fun flby4 () Bool)
(declare-fun flby3 () Bool)
(declare-fun flby5 () Bool)
(define-fun .def_91 () Bool (not flby3))
(define-fun .def_89 () Bool (not flby2))
(define-fun .def_88 () Bool (not flby))
(define-fun .def_90 () Bool (and .def_88 .def_89))
(define-fun .def_92 () Bool (and .def_90 .def_91))
(define-fun .def_93 () Bool (and flby4 .def_92))
(define-fun .def_94 () Bool (and flby5 .def_93))
(define-fun .def_85 () Bool (= c flby3))
(define-fun .def_81 () Bool (= b flby2))
(define-fun .def_77 () Bool (= a flby))
(define-fun .def_74 () Bool (= _OK_ flby5))
(define-fun .def_78 () Bool (and .def_74 .def_77))
(define-fun .def_82 () Bool (and .def_78 .def_81))
(define-fun .def_86 () Bool (and .def_82 .def_85))
(define-fun .def_95 () Bool (and .def_86 .def_94))
(assert .def_95)
